p td 80 80
0 72
0 51
1 49
3 31
3 14
4 19
5 75
5 13
6 50
7 50
8 21
8 51
8 35
9 29
9 10
9 26
9 48
9 59
10 69
10 61
12 48
12 16
12 14
13 70
13 72
14 76
14 26
14 42
15 45
16 67
18 65
18 74
18 44
19 67
19 64
20 74
20 56
20 44
20 67
23 78
23 50
23 65
23 48
24 56
24 50
25 62
26 42
27 33
28 71
31 40
32 72
32 70
32 54
33 74
34 75
36 65
37 78
38 68
39 64
39 72
42 69
42 67
43 61
45 46
45 57
47 72
47 55
47 50
49 57
49 67
50 75
50 62
53 78
55 75
55 70
55 61
56 78
57 73
60 69
62 65
